QPLIB_3147
LCQ
minimize
419 # number of variables
140 # number of constraints
0.0 # default value for linear coefficients in objective
48 # number of non-default linear coefficients in objective
1 1.0
2 1.0
3 1.0
4 1.0
5 1.0
6 1.0
7 1.0
8 1.0
9 1.0
10 1.0
11 1.0
12 1.0
13 1.0
14 1.0
15 1.0
16 1.0
17 1.0
18 1.0
19 1.0
20 1.0
21 1.0
22 1.0
23 1.0
24 1.0
25 1.0
26 1.0
27 1.0
28 1.0
29 1.0
30 1.0
31 1.0
32 1.0
33 1.0
34 1.0
35 1.0
36 1.0
37 1.0
38 1.0
39 1.0
40 1.0
41 1.0
42 1.0
43 1.0
44 1.0
45 1.0
46 1.0
47 1.0
48 1.0
0.0 # objective constant
836 # number of quadratic terms in all constraints
33 1684152432 1 2.0
33 1684152432 1 -2.0
33 1684152432 1 -2.0
33 1684152432 1 -2.0
33 1684152432 1 -2.0
33 1684152432 1 -2.0
33 1684152432 1 -2.0
33 1684152432 1 -2.0
33 1684152432 1 -2.0
33 1684152432 1 -2.0
33 1684152432 1 -2.0
33 1684152432 1 -2.0
34 540156025 -1074790399 2.0
34 540156025 -1074790399 -2.0
34 540156025 -1074790399 -2.0
34 540156025 -1074790399 -2.0
34 540156025 -1074790399 -2.0
34 540156025 -1074790399 -2.0
34 540156025 -1074790399 -2.0
34 540156025 -1074790399 -2.0
34 540156025 -1074790399 -2.0
34 540156025 -1074790399 -2.0
34 540156025 -1074790399 -2.0
34 540156025 -1074790399 -2.0
35 1163218737 1 2.0
35 1163218737 1 -2.0
35 1163218737 1 -2.0
35 1163218737 1 -2.0
35 1163218737 1 -2.0
35 1163218737 1 -2.0
35 1163218737 1 -2.0
35 1163218737 1 -2.0
35 1163218737 1 -2.0
35 1163218737 1 -2.0
35 1163218737 1 -2.0
35 1163218737 1 -2.0
36 541412943 -1074790399 2.0
36 541412943 -1074790399 -2.0
36 541412943 -1074790399 -2.0
36 541412943 -1074790399 -2.0
36 541412943 -1074790399 -2.0
36 541412943 -1074790399 -2.0
36 541412943 -1074790399 -2.0
36 541412943 -1074790399 -2.0
36 541412943 -1074790399 -2.0
36 541412943 -1074790399 -2.0
36 541412943 -1074790399 -2.0
36 541412943 -1074790399 -2.0
37 540094770 1 2.0
37 540094770 1 -2.0
37 540094770 1 -2.0
37 540094770 1 -2.0
37 540094770 1 -2.0
37 540094770 1 -2.0
37 540094770 1 -2.0
37 540094770 1 -2.0
37 540094770 1 -2.0
37 540094770 1 -2.0
37 540094770 1 -2.0
37 540094770 1 -2.0
38 540090417 -1074790399 2.0
38 540090417 -1074790399 -2.0
38 540090417 -1074790399 -2.0
38 540090417 -1074790399 -2.0
38 540090417 -1074790399 -2.0
38 540090417 -1074790399 -2.0
38 540090417 -1074790399 -2.0
38 540090417 -1074790399 -2.0
38 540090417 -1074790399 -2.0
38 540090417 -1074790399 -2.0
38 540090417 -1074790399 -2.0
38 540090417 -1074790399 -2.0
39 50 1 2.0
39 50 1 -2.0
39 50 1 -2.0
39 50 1 -2.0
39 50 1 -2.0
39 50 1 -2.0
39 50 1 -2.0
39 50 1 -2.0
39 50 1 -2.0
39 50 1 -2.0
39 50 1 -2.0
39 50 1 -2.0
40 1 -1074790399 2.0
40 1 -1074790399 -2.0
40 1 -1074790399 -2.0
40 1 -1074790399 -2.0
40 1 -1074790399 -2.0
40 1 -1074790399 -2.0
40 1 -1074790399 -2.0
40 1 -1074790399 -2.0
40 1 -1074790399 -2.0
40 1 -1074790399 -2.0
40 1 -1074790399 -2.0
40 1 -1074790399 -2.0
41 1651076122 1 2.0
41 1651076122 1 -2.0
41 1651076122 1 -2.0
41 1651076122 1 -2.0
41 1651076122 1 -2.0
41 1651076122 1 -2.0
41 1651076122 1 -2.0
41 1651076122 1 -2.0
41 1651076122 1 -2.0
41 1651076122 1 -2.0
41 1651076122 1 -2.0
41 1651076122 1 -2.0
42 1852403556 1 2.0
42 1852403556 1 -2.0
42 1852403556 1 -2.0
42 1852403556 1 -2.0
42 1852403556 1 -2.0
42 1852403556 1 -2.0
42 1852403556 1 -2.0
42 1852403556 1 -2.0
42 1852403556 1 -2.0
42 1852403556 1 -2.0
42 1852403556 1 -2.0
42 1852403556 1 -2.0
43 1768711012 66 2.0
43 1768711012 66 -2.0
43 1768711012 66 -2.0
43 1768711012 66 -2.0
43 1768711012 66 -2.0
43 1768711012 66 -2.0
43 1768711012 66 -2.0
43 1768711012 66 -2.0
43 1768711012 66 -2.0
43 1768711012 66 -2.0
43 1768711012 66 -2.0
43 1768711012 66 -2.0
44 775173731 1 2.0
44 775173731 1 -2.0
44 775173731 1 -2.0
44 775173731 1 -2.0
44 775173731 1 -2.0
44 775173731 1 -2.0
44 775173731 1 -2.0
44 775173731 1 -2.0
44 775173731 1 -2.0
44 775173731 1 -2.0
44 775173731 1 -2.0
44 775173731 1 -2.0
45 1646292852 -1566762071 2.0
45 1646292852 -1566762071 -2.0
45 1646292852 -1566762071 -2.0
45 1646292852 -1566762071 -2.0
45 1646292852 -1566762071 -2.0
45 1646292852 -1566762071 -2.0
45 1646292852 -1566762071 -2.0
45 1646292852 -1566762071 -2.0
45 1646292852 -1566762071 -2.0
45 1646292852 -1566762071 -2.0
45 1646292852 -1566762071 -2.0
45 1646292852 -1566762071 -2.0
46 824209008 32522 2.0
46 824209008 32522 -2.0
46 824209008 32522 -2.0
46 824209008 32522 -2.0
46 824209008 32522 -2.0
46 824209008 32522 -2.0
46 824209008 32522 -2.0
46 824209008 32522 -2.0
46 824209008 32522 -2.0
46 824209008 32522 -2.0
46 824209008 32522 -2.0
46 824209008 32522 -2.0
47 1852125217 -1566762071 2.0
47 1852125217 -1566762071 -2.0
47 1852125217 -1566762071 -2.0
47 1852125217 -1566762071 -2.0
47 1852125217 -1566762071 -2.0
47 1852125217 -1566762071 -2.0
47 1852125217 -1566762071 -2.0
47 1852125217 -1566762071 -2.0
47 1852125217 -1566762071 -2.0
47 1852125217 -1566762071 -2.0
47 1852125217 -1566762071 -2.0
47 1852125217 -1566762071 -2.0
48 1915646838 32522 2.0
48 1915646838 32522 -2.0
48 1915646838 32522 -2.0
48 1915646838 32522 -2.0
48 1915646838 32522 -2.0
48 1915646838 32522 -2.0
48 1915646838 32522 -2.0
48 1915646838 32522 -2.0
48 1915646838 32522 -2.0
48 1915646838 32522 -2.0
48 1915646838 32522 -2.0
48 1915646838 32522 -2.0
49 17694577 49 2.0
49 17694577 49 -2.0
49 17694577 49 -2.0
49 17694577 49 -2.0
49 17694577 49 -2.0
49 17694577 49 -2.0
49 17694577 49 -2.0
49 17694577 49 -2.0
49 17694577 49 -2.0
49 17694577 49 -2.0
49 17694577 49 -2.0
49 17694577 49 -2.0
50 1 1 2.0
50 1 1 -2.0
50 1 1 -2.0
50 1 1 -2.0
50 1 1 -2.0
50 1 1 -2.0
50 1 1 -2.0
50 1 1 -2.0
50 1 1 -2.0
50 1 1 -2.0
50 1 1 -2.0
50 1 1 -2.0
51 306 34 2.0
51 306 34 -2.0
51 306 34 -2.0
51 306 34 -2.0
51 306 34 -2.0
51 306 34 -2.0
51 306 34 -2.0
51 306 34 -2.0
51 306 34 -2.0
51 306 34 -2.0
51 306 34 -2.0
51 306 34 -2.0
52 1 1 2.0
52 1 1 -2.0
52 1 1 -2.0
52 1 1 -2.0
52 1 1 -2.0
52 1 1 -2.0
52 1 1 -2.0
52 1 1 -2.0
52 1 1 -2.0
52 1 1 -2.0
52 1 1 -2.0
52 1 1 -2.0
53 17695505 -1566761831 2.0
53 17695505 -1566761831 -2.0
53 17695505 -1566761831 -2.0
53 17695505 -1566761831 -2.0
53 17695505 -1566761831 -2.0
53 17695505 -1566761831 -2.0
53 17695505 -1566761831 -2.0
53 17695505 -1566761831 -2.0
53 17695505 -1566761831 -2.0
53 17695505 -1566761831 -2.0
53 17695505 -1566761831 -2.0
53 17695505 -1566761831 -2.0
54 32522 1 2.0
54 32522 1 -2.0
54 32522 1 -2.0
54 32522 1 -2.0
54 32522 1 -2.0
54 32522 1 -2.0
54 32522 1 -2.0
54 32522 1 -2.0
54 32522 1 -2.0
54 32522 1 -2.0
54 32522 1 -2.0
54 32522 1 -2.0
55 17740801 17695505 2.0
55 17740801 17695505 -2.0
55 17740801 17695505 -2.0
55 17740801 17695505 -2.0
55 17740801 17695505 -2.0
55 17740801 17695505 -2.0
55 17740801 17695505 -2.0
55 17740801 17695505 -2.0
55 17740801 17695505 -2.0
55 17740801 17695505 -2.0
55 17740801 17695505 -2.0
55 17740801 17695505 -2.0
56 1 1 2.0
56 1 1 -2.0
56 1 1 -2.0
56 1 1 -2.0
56 1 1 -2.0
56 1 1 -2.0
56 1 1 -2.0
56 1 1 -2.0
56 1 1 -2.0
56 1 1 -2.0
56 1 1 -2.0
56 1 1 -2.0
57 65 1 2.0
57 65 1 -2.0
57 65 1 -2.0
57 65 1 -2.0
57 65 1 -2.0
57 65 1 -2.0
57 65 1 -2.0
57 65 1 -2.0
57 65 1 -2.0
57 65 1 -2.0
57 65 1 -2.0
57 65 1 -2.0
58 2 1 2.0
58 2 1 -2.0
58 2 1 -2.0
58 2 1 -2.0
58 2 1 -2.0
58 2 1 -2.0
58 2 1 -2.0
58 2 1 -2.0
58 2 1 -2.0
58 2 1 -2.0
58 2 1 -2.0
58 2 1 -2.0
59 33 1 2.0
59 33 1 -2.0
59 33 1 -2.0
59 33 1 -2.0
59 33 1 -2.0
59 33 1 -2.0
59 33 1 -2.0
59 33 1 -2.0
59 33 1 -2.0
59 33 1 -2.0
59 33 1 -2.0
59 33 1 -2.0
60 421 1 2.0
60 421 1 -2.0
60 421 1 -2.0
60 421 1 -2.0
60 421 1 -2.0
60 421 1 -2.0
60 421 1 -2.0
60 421 1 -2.0
60 421 1 -2.0
60 421 1 -2.0
60 421 1 -2.0
60 421 1 -2.0
61 1920287498 1 2.0
61 1920287498 1 -2.0
61 1920287498 1 -2.0
61 1920287498 1 -2.0
61 1920287498 1 -2.0
61 1920287498 1 -2.0
61 1920287498 1 -2.0
61 1920287498 1 -2.0
61 1920287498 1 -2.0
61 1920287498 1 -2.0
61 1920287498 1 -2.0
61 1920287498 1 -2.0
62 1986817876 1 2.0
62 1986817876 1 -2.0
62 1986817876 1 -2.0
62 1986817876 1 -2.0
62 1986817876 1 -2.0
62 1986817876 1 -2.0
62 1986817876 1 -2.0
62 1986817876 1 -2.0
62 1986817876 1 -2.0
62 1986817876 1 -2.0
62 1986817876 1 -2.0
62 1986817876 1 -2.0
63 17697121 -1566739866 2.0
63 17697121 -1566739866 -2.0
63 17697121 -1566739866 -2.0
63 17697121 -1566739866 -2.0
63 17697121 -1566739866 -2.0
63 17697121 -1566739866 -2.0
63 17697121 -1566739866 -2.0
63 17697121 -1566739866 -2.0
63 17697121 -1566739866 -2.0
63 17697121 -1566739866 -2.0
63 17697121 -1566739866 -2.0
63 17697121 -1566739866 -2.0
64 32522 1 2.0
64 32522 1 -2.0
64 32522 1 -2.0
64 32522 1 -2.0
64 32522 1 -2.0
64 32522 1 -2.0
64 32522 1 -2.0
64 32522 1 -2.0
64 32522 1 -2.0
64 32522 1 -2.0
64 32522 1 -2.0
64 32522 1 -2.0
65 17697873 1 2.0
65 17697873 1 -2.0
65 17697873 1 -2.0
65 17697873 1 -2.0
65 17697873 1 -2.0
65 17697873 1 -2.0
65 17697873 1 -2.0
65 17697873 1 -2.0
65 17697873 1 -2.0
65 17697873 1 -2.0
65 17697873 1 -2.0
65 17697873 1 -2.0
66 1 1 2.0
66 1 1 -2.0
66 1 1 -2.0
66 1 1 -2.0
66 1 1 -2.0
66 1 1 -2.0
66 1 1 -2.0
66 1 1 -2.0
66 1 1 -2.0
66 1 1 -2.0
66 1 1 -2.0
66 1 1 -2.0
67 242 130 2.0
67 242 130 -2.0
67 242 130 -2.0
67 242 130 -2.0
67 242 130 -2.0
67 242 130 -2.0
67 242 130 -2.0
67 242 130 -2.0
67 242 130 -2.0
67 242 130 -2.0
67 242 130 -2.0
67 242 130 -2.0
68 1 1 2.0
68 1 1 -2.0
68 1 1 -2.0
68 1 1 -2.0
68 1 1 -2.0
68 1 1 -2.0
68 1 1 -2.0
68 1 1 -2.0
68 1 1 -2.0
68 1 1 -2.0
68 1 1 -2.0
68 1 1 -2.0
69 17741041 -1590672159 2.0
69 17741041 -1590672159 -2.0
69 17741041 -1590672159 -2.0
69 17741041 -1590672159 -2.0
69 17741041 -1590672159 -2.0
69 17741041 -1590672159 -2.0
69 17741041 -1590672159 -2.0
69 17741041 -1590672159 -2.0
69 17741041 -1590672159 -2.0
69 17741041 -1590672159 -2.0
69 17741041 -1590672159 -2.0
69 17741041 -1590672159 -2.0
70 32522 1 2.0
70 32522 1 -2.0
70 32522 1 -2.0
70 32522 1 -2.0
70 32522 1 -2.0
70 32522 1 -2.0
70 32522 1 -2.0
70 32522 1 -2.0
70 32522 1 -2.0
70 32522 1 -2.0
70 32522 1 -2.0
70 32522 1 -2.0
71 18371201 2 2.0
71 18371201 2 -2.0
71 18371201 2 -2.0
71 18371201 2 -2.0
71 18371201 2 -2.0
71 18371201 2 -2.0
71 18371201 2 -2.0
71 18371201 2 -2.0
71 18371201 2 -2.0
71 18371201 2 -2.0
71 18371201 2 -2.0
71 18371201 2 -2.0
72 1 1 2.0
72 1 1 -2.0
72 1 1 -2.0
72 1 1 -2.0
72 1 1 -2.0
72 1 1 -2.0
72 1 1 -2.0
72 1 1 -2.0
72 1 1 -2.0
72 1 1 -2.0
72 1 1 -2.0
72 1 1 -2.0
73 17697521 17697121 2.0
73 17697521 17697121 -2.0
73 17697521 17697121 -2.0
73 17697521 17697121 -2.0
73 17697521 17697121 -2.0
73 17697521 17697121 -2.0
73 17697521 17697121 -2.0
73 17697521 17697121 -2.0
73 17697521 17697121 -2.0
73 17697521 17697121 -2.0
73 17697521 17697121 -2.0
73 17697521 17697121 -2.0
74 1 1 2.0
74 1 1 -2.0
74 1 1 -2.0
74 1 1 -2.0
74 1 1 -2.0
74 1 1 -2.0
74 1 1 -2.0
74 1 1 -2.0
74 1 1 -2.0
74 1 1 -2.0
74 1 1 -2.0
74 1 1 -2.0
75 421 1 2.0
75 421 1 -2.0
75 421 1 -2.0
75 421 1 -2.0
75 421 1 -2.0
75 421 1 -2.0
75 421 1 -2.0
75 421 1 -2.0
75 421 1 -2.0
75 421 1 -2.0
75 421 1 -2.0
75 421 1 -2.0
76 -2147483648 1 2.0
76 -2147483648 1 -2.0
76 -2147483648 1 -2.0
76 -2147483648 1 -2.0
76 -2147483648 1 -2.0
76 -2147483648 1 -2.0
76 -2147483648 1 -2.0
76 -2147483648 1 -2.0
76 -2147483648 1 -2.0
76 -2147483648 1 -2.0
76 -2147483648 1 -2.0
76 -2147483648 1 -2.0
77 17691201 1 -2.0
77 17691201 1 -2.0
77 17691201 1 -2.0
77 17691201 1 -2.0
77 17691201 1 -2.0
77 17691201 1 -2.0
77 17691201 1 -2.0
77 17691201 1 -2.0
77 17691201 1 -2.0
77 17691201 1 -2.0
77 17691201 1 -2.0
78 309 1 -2.0
78 309 1 -2.0
78 309 1 -2.0
78 309 1 -2.0
78 309 1 -2.0
78 309 1 -2.0
78 309 1 -2.0
78 309 1 -2.0
78 309 1 -2.0
78 309 1 -2.0
78 309 1 -2.0
79 17697553 194 -2.0
79 17697553 194 -2.0
79 17697553 194 -2.0
79 17697553 194 -2.0
79 17697553 194 -2.0
79 17697553 194 -2.0
79 17697553 194 -2.0
79 17697553 194 -2.0
79 17697553 194 -2.0
79 17697553 194 -2.0
79 17697553 194 -2.0
80 1 1 -2.0
80 1 1 -2.0
80 1 1 -2.0
80 1 1 -2.0
80 1 1 -2.0
80 1 1 -2.0
80 1 1 -2.0
80 1 1 -2.0
80 1 1 -2.0
80 1 1 -2.0
80 1 1 -2.0
81 17695649 1 -2.0
81 17695649 1 -2.0
81 17695649 1 -2.0
81 17695649 1 -2.0
81 17695649 1 -2.0
81 17695649 1 -2.0
81 17695649 1 -2.0
81 17695649 1 -2.0
81 17695649 1 -2.0
81 17695649 1 -2.0
81 17695649 1 -2.0
82 1 1 -2.0
82 1 1 -2.0
82 1 1 -2.0
82 1 1 -2.0
82 1 1 -2.0
82 1 1 -2.0
82 1 1 -2.0
82 1 1 -2.0
82 1 1 -2.0
82 1 1 -2.0
82 1 1 -2.0
83 17741041 1 -2.0
83 17741041 1 -2.0
83 17741041 1 -2.0
83 17741041 1 -2.0
83 17741041 1 -2.0
83 17741041 1 -2.0
83 17741041 1 -2.0
83 17741041 1 -2.0
83 17741041 1 -2.0
83 17741041 1 -2.0
83 17741041 1 -2.0
84 1 1 -2.0
84 1 1 -2.0
84 1 1 -2.0
84 1 1 -2.0
84 1 1 -2.0
84 1 1 -2.0
84 1 1 -2.0
84 1 1 -2.0
84 1 1 -2.0
84 1 1 -2.0
84 1 1 -2.0
85 18765649 1 -2.0
85 18765649 1 -2.0
85 18765649 1 -2.0
85 18765649 1 -2.0
85 18765649 1 -2.0
85 18765649 1 -2.0
85 18765649 1 -2.0
85 18765649 1 -2.0
85 18765649 1 -2.0
85 18765649 1 -2.0
85 18765649 1 -2.0
86 2 1 -2.0
86 2 1 -2.0
86 2 1 -2.0
86 2 1 -2.0
86 2 1 -2.0
86 2 1 -2.0
86 2 1 -2.0
86 2 1 -2.0
86 2 1 -2.0
86 2 1 -2.0
86 2 1 -2.0
87 162 1 -2.0
87 162 1 -2.0
87 162 1 -2.0
87 162 1 -2.0
87 162 1 -2.0
87 162 1 -2.0
87 162 1 -2.0
87 162 1 -2.0
87 162 1 -2.0
87 162 1 -2.0
87 162 1 -2.0
88 1 1 -2.0
88 1 1 -2.0
88 1 1 -2.0
88 1 1 -2.0
88 1 1 -2.0
88 1 1 -2.0
88 1 1 -2.0
88 1 1 -2.0
88 1 1 -2.0
88 1 1 -2.0
88 1 1 -2.0
89 17695649 2 -2.0
89 17695649 2 -2.0
89 17695649 2 -2.0
89 17695649 2 -2.0
89 17695649 2 -2.0
89 17695649 2 -2.0
89 17695649 2 -2.0
89 17695649 2 -2.0
89 17695649 2 -2.0
89 17695649 2 -2.0
89 17695649 2 -2.0
90 2 1 -2.0
90 2 1 -2.0
90 2 1 -2.0
90 2 1 -2.0
90 2 1 -2.0
90 2 1 -2.0
90 2 1 -2.0
90 2 1 -2.0
90 2 1 -2.0
90 2 1 -2.0
90 2 1 -2.0
91 1 -1566762119 -2.0
91 1 -1566762119 -2.0
91 1 -1566762119 -2.0
91 1 -1566762119 -2.0
91 1 -1566762119 -2.0
91 1 -1566762119 -2.0
91 1 -1566762119 -2.0
91 1 -1566762119 -2.0
91 1 -1566762119 -2.0
91 1 -1566762119 -2.0
91 1 -1566762119 -2.0
92 32522 1 -2.0
92 32522 1 -2.0
92 32522 1 -2.0
92 32522 1 -2.0
92 32522 1 -2.0
92 32522 1 -2.0
92 32522 1 -2.0
92 32522 1 -2.0
92 32522 1 -2.0
92 32522 1 -2.0
92 32522 1 -2.0
93 177 124 -2.0
93 177 124 -2.0
93 177 124 -2.0
93 177 124 -2.0
93 177 124 -2.0
93 177 124 -2.0
93 177 124 -2.0
93 177 124 -2.0
93 177 124 -2.0
93 177 124 -2.0
93 177 124 -2.0
94 1 1 -2.0
94 1 1 -2.0
94 1 1 -2.0
94 1 1 -2.0
94 1 1 -2.0
94 1 1 -2.0
94 1 1 -2.0
94 1 1 -2.0
94 1 1 -2.0
94 1 1 -2.0
94 1 1 -2.0
95 -2147483648 49 -2.0
95 -2147483648 49 -2.0
95 -2147483648 49 -2.0
95 -2147483648 49 -2.0
95 -2147483648 49 -2.0
95 -2147483648 49 -2.0
95 -2147483648 49 -2.0
95 -2147483648 49 -2.0
95 -2147483648 49 -2.0
95 -2147483648 49 -2.0
95 -2147483648 49 -2.0
96 256 1 -2.0
96 256 1 -2.0
96 256 1 -2.0
96 256 1 -2.0
96 256 1 -2.0
96 256 1 -2.0
96 256 1 -2.0
96 256 1 -2.0
96 256 1 -2.0
96 256 1 -2.0
96 256 1 -2.0
97 1 1 2.0
97 1 1 -2.0
98 1 1 2.0
98 1 1 -2.0
99 34 1 2.0
99 34 1 -2.0
100 1 1 2.0
100 1 1 -2.0
101 1953845015 1 2.0
101 1953845015 1 -2.0
102 544503153 1 2.0
102 544503153 1 -2.0
103 1701603687 1 2.0
103 1701603687 1 -2.0
104 1734438945 1 2.0
104 1734438945 1 -2.0
105 1769414758 1 2.0
105 1769414758 1 -2.0
106 6845541 1 2.0
106 6845541 1 -2.0
107 82 34 2.0
107 82 34 -2.0
108 1 1 2.0
108 1 1 -2.0
109 1734430730 17714065 2.0
109 1734430730 17714065 -2.0
110 1684625254 1 2.0
110 1684625254 1 -2.0
111 -1566742411 -1566762119 2.0
111 -1566742411 -1566762119 -2.0
112 32522 32522 2.0
112 32522 32522 -2.0
113 17701505 1 2.0
113 17701505 1 -2.0
114 1 1 2.0
114 1 1 -2.0
115 50 1 2.0
115 50 1 -2.0
116 1 1 2.0
116 1 1 -2.0
117 1734430730 17695521 2.0
117 1734430730 17695521 -2.0
118 1684625254 1 2.0
118 1684625254 1 -2.0
119 34 -1566742411 2.0
119 34 -1566742411 -2.0
120 32522 1 2.0
120 32522 1 -2.0
121 17701937 -1566762119 2.0
121 17701937 -1566762119 -2.0
122 32522 1 2.0
122 32522 1 -2.0
123 17701729 17696529 2.0
123 17701729 17696529 -2.0
124 1 1 2.0
124 1 1 -2.0
125 305 49 2.0
125 305 49 -2.0
126 1 1 2.0
126 1 1 -2.0
127 113 34 2.0
127 113 34 -2.0
128 1 1 2.0
128 1 1 -2.0
129 1818576901 -1590672799 2.0
129 1818576901 -1590672799 -2.0
130 32625 32522 2.0
130 32625 32522 -2.0
131 1 -1566762119 2.0
131 1 -1566762119 -2.0
132 32522 1 2.0
132 32522 1 -2.0
133 1 1 2.0
133 1 1 -2.0
134 1 1 2.0
134 1 1 -2.0
135 130 1 2.0
135 130 1 -2.0
136 1 1 2.0
136 1 1 -2.0
137 17691201 -1590672159 2.0
137 17691201 -1590672159 -2.0
138 32522 1 2.0
138 32522 1 -2.0
139 17694753 2 2.0
139 17694753 2 -2.0
140 1 1 2.0
140 1 1 -2.0
1110 # number of linear terms in all constraints
1 1 -1.0
1 17 -1.0
1 33 -1.0
1 137 1.0
1 138 -1.0
1 139 -1.0
1 140 -1.0
1 141 -1.0
1 142 -1.0
1 143 -1.0
1 144 -1.0
1 145 -1.0
1 146 -1.0
1 147 -1.0
1 148 -1.0
1 149 -1.0
1 150 -1.0
1 151 -1.0
1 152 -1.0
1 153 -1.0
2 2 -1.0
2 18 -1.0
2 34 -1.0
2 154 1.0
2 155 -1.0
2 156 -1.0
2 157 -1.0
2 158 -1.0
2 159 -1.0
2 160 -1.0
2 161 -1.0
2 162 -1.0
2 163 -1.0
2 164 -1.0
2 165 -1.0
2 166 -1.0
2 167 -1.0
2 168 -1.0
2 169 -1.0
2 170 -1.0
3 3 -1.0
3 19 -1.0
3 35 -1.0
3 171 1.0
3 172 -1.0
3 173 -1.0
3 174 -1.0
3 175 -1.0
3 176 -1.0
3 177 -1.0
3 178 -1.0
3 179 -1.0
3 180 -1.0
3 181 -1.0
3 182 -1.0
3 183 -1.0
3 184 -1.0
3 185 -1.0
3 186 -1.0
3 187 -1.0
4 4 -1.0
4 20 -1.0
4 36 -1.0
4 188 1.0
4 189 -1.0
4 190 -1.0
4 191 -1.0
4 192 -1.0
4 193 -1.0
4 194 -1.0
4 195 -1.0
4 196 -1.0
4 197 -1.0
4 198 -1.0
4 199 -1.0
4 200 -1.0
4 201 -1.0
4 202 -1.0
4 203 -1.0
4 204 -1.0
5 5 -1.0
5 21 -1.0
5 37 -1.0
5 205 1.0
5 206 -1.0
5 207 -1.0
5 208 -1.0
5 209 -1.0
5 210 -1.0
5 211 -1.0
5 212 -1.0
5 213 -1.0
5 214 -1.0
5 215 -1.0
5 216 -1.0
5 217 -1.0
5 218 -1.0
5 219 -1.0
5 220 -1.0
5 221 -1.0
6 6 -1.0
6 22 -1.0
6 38 -1.0
6 222 1.0
6 223 -1.0
6 224 -1.0
6 225 -1.0
6 226 -1.0
6 227 -1.0
6 228 -1.0
6 229 -1.0
6 230 -1.0
6 231 -1.0
6 232 -1.0
6 233 -1.0
6 234 -1.0
6 235 -1.0
6 236 -1.0
6 237 -1.0
6 238 -1.0
7 7 -1.0
7 23 -1.0
7 39 -1.0
7 239 1.0
7 240 -1.0
7 241 -1.0
7 242 -1.0
7 243 -1.0
7 244 -1.0
7 245 -1.0
7 246 -1.0
7 247 -1.0
7 248 -1.0
7 249 -1.0
7 250 -1.0
7 251 -1.0
7 252 -1.0
7 253 -1.0
7 254 -1.0
7 255 -1.0
8 8 -1.0
8 24 -1.0
8 40 -1.0
8 256 1.0
8 257 -1.0
8 258 -1.0
8 259 -1.0
8 260 -1.0
8 261 -1.0
8 262 -1.0
8 263 -1.0
8 264 -1.0
8 265 -1.0
8 266 -1.0
8 267 -1.0
8 268 -1.0
8 269 -1.0
8 270 -1.0
8 271 -1.0
8 272 -1.0
9 9 -1.0
9 25 -1.0
9 41 -1.0
9 273 1.0
9 274 -1.0
9 275 -1.0
9 276 -1.0
9 277 -1.0
9 278 -1.0
9 279 -1.0
9 280 -1.0
9 281 -1.0
9 282 -1.0
9 283 -1.0
9 284 -1.0
9 285 -1.0
9 286 -1.0
9 287 -1.0
9 288 -1.0
9 289 -1.0
10 10 -1.0
10 26 -1.0
10 42 -1.0
10 290 1.0
10 291 -1.0
10 292 -1.0
10 293 -1.0
10 294 -1.0
10 295 -1.0
10 296 -1.0
10 297 -1.0
10 298 -1.0
10 299 -1.0
10 300 -1.0
10 301 -1.0
10 302 -1.0
10 303 -1.0
10 304 -1.0
10 305 -1.0
10 306 -1.0
11 11 -1.0
11 27 -1.0
11 43 -1.0
11 307 1.0
11 308 -1.0
11 309 -1.0
11 310 -1.0
11 311 -1.0
11 312 -1.0
11 313 -1.0
11 314 -1.0
11 315 -1.0
11 316 -1.0
11 317 -1.0
11 318 -1.0
11 319 -1.0
11 320 -1.0
11 321 -1.0
11 322 -1.0
11 323 -1.0
12 12 -1.0
12 28 -1.0
12 44 -1.0
12 324 -1.0
12 325 -1.0
12 326 -1.0
12 327 -1.0
12 328 -1.0
12 329 -1.0
12 330 -1.0
12 331 -1.0
12 332 -1.0
12 333 -1.0
12 334 -1.0
12 335 -1.0
12 336 -1.0
12 337 -1.0
12 338 -1.0
12 339 -1.0
13 13 -1.0
13 29 -1.0
13 45 -1.0
13 340 -1.0
13 341 -1.0
13 342 -1.0
13 343 -1.0
13 344 -1.0
13 345 -1.0
13 346 -1.0
13 347 -1.0
13 348 -1.0
13 349 -1.0
13 350 -1.0
13 351 -1.0
13 352 -1.0
13 353 -1.0
13 354 -1.0
13 355 -1.0
14 14 -1.0
14 30 -1.0
14 46 -1.0
14 356 -1.0
14 357 -1.0
14 358 -1.0
14 359 -1.0
14 360 -1.0
14 361 -1.0
14 362 -1.0
14 363 -1.0
14 364 -1.0
14 365 -1.0
14 366 -1.0
14 367 -1.0
14 368 -1.0
14 369 -1.0
14 370 -1.0
14 371 -1.0
15 15 -1.0
15 31 -1.0
15 47 -1.0
15 372 -1.0
15 373 -1.0
15 374 -1.0
15 375 -1.0
15 376 -1.0
15 377 -1.0
15 378 -1.0
15 379 -1.0
15 380 -1.0
15 381 -1.0
15 382 -1.0
15 383 -1.0
15 384 -1.0
15 385 -1.0
15 386 -1.0
15 387 -1.0
16 16 -1.0
16 32 -1.0
16 48 -1.0
16 388 -1.0
16 389 -1.0
16 390 -1.0
16 391 -1.0
16 392 -1.0
16 393 -1.0
16 394 -1.0
16 395 -1.0
16 396 -1.0
16 397 -1.0
16 398 -1.0
16 399 -1.0
16 400 -1.0
16 401 -1.0
16 402 -1.0
16 403 -1.0
17 137 1.0
17 138 -1.0
17 155 -1.0
17 172 -1.0
17 189 -1.0
17 206 -1.0
17 223 -1.0
17 240 -1.0
17 257 -1.0
17 274 -1.0
17 291 -1.0
17 308 -1.0
17 324 -1.0
17 340 -1.0
17 356 -1.0
17 372 -1.0
17 388 -1.0
17 404 -1.0
18 139 -1.0
18 154 1.0
18 156 -1.0
18 173 -1.0
18 190 -1.0
18 207 -1.0
18 224 -1.0
18 241 -1.0
18 258 -1.0
18 275 -1.0
18 292 -1.0
18 309 -1.0
18 325 -1.0
18 341 -1.0
18 357 -1.0
18 373 -1.0
18 389 -1.0
18 405 -1.0
19 140 -1.0
19 157 -1.0
19 171 1.0
19 174 -1.0
19 191 -1.0
19 208 -1.0
19 225 -1.0
19 242 -1.0
19 259 -1.0
19 276 -1.0
19 293 -1.0
19 310 -1.0
19 326 -1.0
19 342 -1.0
19 358 -1.0
19 374 -1.0
19 390 -1.0
19 406 -1.0
20 141 -1.0
20 158 -1.0
20 175 -1.0
20 188 1.0
20 192 -1.0
20 209 -1.0
20 226 -1.0
20 243 -1.0
20 260 -1.0
20 277 -1.0
20 294 -1.0
20 311 -1.0
20 327 -1.0
20 343 -1.0
20 359 -1.0
20 375 -1.0
20 391 -1.0
20 407 -1.0
21 142 -1.0
21 159 -1.0
21 176 -1.0
21 193 -1.0
21 205 1.0
21 210 -1.0
21 227 -1.0
21 244 -1.0
21 261 -1.0
21 278 -1.0
21 295 -1.0
21 312 -1.0
21 328 -1.0
21 344 -1.0
21 360 -1.0
21 376 -1.0
21 392 -1.0
21 408 -1.0
22 143 -1.0
22 160 -1.0
22 177 -1.0
22 194 -1.0
22 211 -1.0
22 222 1.0
22 228 -1.0
22 245 -1.0
22 262 -1.0
22 279 -1.0
22 296 -1.0
22 313 -1.0
22 329 -1.0
22 345 -1.0
22 361 -1.0
22 377 -1.0
22 393 -1.0
22 409 -1.0
23 144 -1.0
23 161 -1.0
23 178 -1.0
23 195 -1.0
23 212 -1.0
23 229 -1.0
23 239 1.0
23 246 -1.0
23 263 -1.0
23 280 -1.0
23 297 -1.0
23 314 -1.0
23 330 -1.0
23 346 -1.0
23 362 -1.0
23 378 -1.0
23 394 -1.0
23 410 -1.0
24 145 -1.0
24 162 -1.0
24 179 -1.0
24 196 -1.0
24 213 -1.0
24 230 -1.0
24 247 -1.0
24 256 1.0
24 264 -1.0
24 281 -1.0
24 298 -1.0
24 315 -1.0
24 331 -1.0
24 347 -1.0
24 363 -1.0
24 379 -1.0
24 395 -1.0
24 411 -1.0
25 146 -1.0
25 163 -1.0
25 180 -1.0
25 197 -1.0
25 214 -1.0
25 231 -1.0
25 248 -1.0
25 265 -1.0
25 273 1.0
25 282 -1.0
25 299 -1.0
25 316 -1.0
25 332 -1.0
25 348 -1.0
25 364 -1.0
25 380 -1.0
25 396 -1.0
25 412 -1.0
26 147 -1.0
26 164 -1.0
26 181 -1.0
26 198 -1.0
26 215 -1.0
26 232 -1.0
26 249 -1.0
26 266 -1.0
26 283 -1.0
26 290 1.0
26 300 -1.0
26 317 -1.0
26 333 -1.0
26 349 -1.0
26 365 -1.0
26 381 -1.0
26 397 -1.0
26 413 -1.0
27 148 -1.0
27 165 -1.0
27 182 -1.0
27 199 -1.0
27 216 -1.0
27 233 -1.0
27 250 -1.0
27 267 -1.0
27 284 -1.0
27 301 -1.0
27 307 1.0
27 318 -1.0
27 334 -1.0
27 350 -1.0
27 366 -1.0
27 382 -1.0
27 398 -1.0
27 414 -1.0
28 149 -1.0
28 166 -1.0
28 183 -1.0
28 200 -1.0
28 217 -1.0
28 234 -1.0
28 251 -1.0
28 268 -1.0
28 285 -1.0
28 302 -1.0
28 319 -1.0
28 335 -1.0
28 351 -1.0
28 367 -1.0
28 383 -1.0
28 399 -1.0
28 415 -1.0
29 150 -1.0
29 167 -1.0
29 184 -1.0
29 201 -1.0
29 218 -1.0
29 235 -1.0
29 252 -1.0
29 269 -1.0
29 286 -1.0
29 303 -1.0
29 320 -1.0
29 336 -1.0
29 352 -1.0
29 368 -1.0
29 384 -1.0
29 400 -1.0
29 416 -1.0
30 151 -1.0
30 168 -1.0
30 185 -1.0
30 202 -1.0
30 219 -1.0
30 236 -1.0
30 253 -1.0
30 270 -1.0
30 287 -1.0
30 304 -1.0
30 321 -1.0
30 337 -1.0
30 353 -1.0
30 369 -1.0
30 385 -1.0
30 401 -1.0
30 417 -1.0
31 152 -1.0
31 169 -1.0
31 186 -1.0
31 203 -1.0
31 220 -1.0
31 237 -1.0
31 254 -1.0
31 271 -1.0
31 288 -1.0
31 305 -1.0
31 322 -1.0
31 338 -1.0
31 354 -1.0
31 370 -1.0
31 386 -1.0
31 402 -1.0
31 418 -1.0
32 153 -1.0
32 170 -1.0
32 187 -1.0
32 204 -1.0
32 221 -1.0
32 238 -1.0
32 255 -1.0
32 272 -1.0
32 289 -1.0
32 306 -1.0
32 323 -1.0
32 339 -1.0
32 355 -1.0
32 371 -1.0
32 387 -1.0
32 403 -1.0
32 419 -1.0
33 1 -2.0
33 17 -7.0
33 33 -7.0
33 149 -1446.0
33 150 -2236.0
33 151 -2808.0
33 152 -1753.0
33 153 -1379.0
34 1 -9.0
34 17 -6.0
34 33 -9.0
34 149 -1730.0
34 150 -2292.0
34 151 -1630.0
34 152 -1716.0
34 153 -2352.0
35 1 -8.0
35 17 -4.0
35 33 -7.0
35 149 -2830.0
35 150 -1911.0
35 151 -2281.0
35 152 -890.0
35 153 -2532.0
36 1 -1.0
36 17 -6.0
36 33 -1.0
36 149 -2558.0
36 150 -2001.0
36 151 -1996.0
36 152 -1853.0
36 153 -626.0
37 2 -2.0
37 18 -7.0
37 34 -7.0
37 166 -1446.0
37 167 -2236.0
37 168 -2808.0
37 169 -1753.0
37 170 -1379.0
38 2 -9.0
38 18 -6.0
38 34 -9.0
38 166 -1730.0
38 167 -2292.0
38 168 -1630.0
38 169 -1716.0
38 170 -2352.0
39 2 -8.0
39 18 -4.0
39 34 -7.0
39 166 -2830.0
39 167 -1911.0
39 168 -2281.0
39 169 -890.0
39 170 -2532.0
40 2 -1.0
40 18 -6.0
40 34 -1.0
40 166 -2558.0
40 167 -2001.0
40 168 -1996.0
40 169 -1853.0
40 170 -626.0
41 3 -2.0
41 19 -7.0
41 35 -7.0
41 183 -1446.0
41 184 -2236.0
41 185 -2808.0
41 186 -1753.0
41 187 -1379.0
42 3 -9.0
42 19 -6.0
42 35 -9.0
42 183 -1730.0
42 184 -2292.0
42 185 -1630.0
42 186 -1716.0
42 187 -2352.0
43 3 -8.0
43 19 -4.0
43 35 -7.0
43 183 -2830.0
43 184 -1911.0
43 185 -2281.0
43 186 -890.0
43 187 -2532.0
44 3 -1.0
44 19 -6.0
44 35 -1.0
44 183 -2558.0
44 184 -2001.0
44 185 -1996.0
44 186 -1853.0
44 187 -626.0
45 4 -2.0
45 20 -7.0
45 36 -7.0
45 200 -1446.0
45 201 -2236.0
45 202 -2808.0
45 203 -1753.0
45 204 -1379.0
46 4 -9.0
46 20 -6.0
46 36 -9.0
46 200 -1730.0
46 201 -2292.0
46 202 -1630.0
46 203 -1716.0
46 204 -2352.0
47 4 -8.0
47 20 -4.0
47 36 -7.0
47 200 -2830.0
47 201 -1911.0
47 202 -2281.0
47 203 -890.0
47 204 -2532.0
48 4 -1.0
48 20 -6.0
48 36 -1.0
48 200 -2558.0
48 201 -2001.0
48 202 -1996.0
48 203 -1853.0
48 204 -626.0
49 5 -2.0
49 21 -7.0
49 37 -7.0
49 217 -1446.0
49 218 -2236.0
49 219 -2808.0
49 220 -1753.0
49 221 -1379.0
50 5 -9.0
50 21 -6.0
50 37 -9.0
50 217 -1730.0
50 218 -2292.0
50 219 -1630.0
50 220 -1716.0
50 221 -2352.0
51 5 -8.0
51 21 -4.0
51 37 -7.0
51 217 -2830.0
51 218 -1911.0
51 219 -2281.0
51 220 -890.0
51 221 -2532.0
52 5 -1.0
52 21 -6.0
52 37 -1.0
52 217 -2558.0
52 218 -2001.0
52 219 -1996.0
52 220 -1853.0
52 221 -626.0
53 6 -2.0
53 22 -7.0
53 38 -7.0
53 234 -1446.0
53 235 -2236.0
53 236 -2808.0
53 237 -1753.0
53 238 -1379.0
54 6 -9.0
54 22 -6.0
54 38 -9.0
54 234 -1730.0
54 235 -2292.0
54 236 -1630.0
54 237 -1716.0
54 238 -2352.0
55 6 -8.0
55 22 -4.0
55 38 -7.0
55 234 -2830.0
55 235 -1911.0
55 236 -2281.0
55 237 -890.0
55 238 -2532.0
56 6 -1.0
56 22 -6.0
56 38 -1.0
56 234 -2558.0
56 235 -2001.0
56 236 -1996.0
56 237 -1853.0
56 238 -626.0
57 7 -2.0
57 23 -7.0
57 39 -7.0
57 251 -1446.0
57 252 -2236.0
57 253 -2808.0
57 254 -1753.0
57 255 -1379.0
58 7 -9.0
58 23 -6.0
58 39 -9.0
58 251 -1730.0
58 252 -2292.0
58 253 -1630.0
58 254 -1716.0
58 255 -2352.0
59 7 -8.0
59 23 -4.0
59 39 -7.0
59 251 -2830.0
59 252 -1911.0
59 253 -2281.0
59 254 -890.0
59 255 -2532.0
60 7 -1.0
60 23 -6.0
60 39 -1.0
60 251 -2558.0
60 252 -2001.0
60 253 -1996.0
60 254 -1853.0
60 255 -626.0
61 8 -2.0
61 24 -7.0
61 40 -7.0
61 268 -1446.0
61 269 -2236.0
61 270 -2808.0
61 271 -1753.0
61 272 -1379.0
62 8 -9.0
62 24 -6.0
62 40 -9.0
62 268 -1730.0
62 269 -2292.0
62 270 -1630.0
62 271 -1716.0
62 272 -2352.0
63 8 -8.0
63 24 -4.0
63 40 -7.0
63 268 -2830.0
63 269 -1911.0
63 270 -2281.0
63 271 -890.0
63 272 -2532.0
64 8 -1.0
64 24 -6.0
64 40 -1.0
64 268 -2558.0
64 269 -2001.0
64 270 -1996.0
64 271 -1853.0
64 272 -626.0
65 9 -2.0
65 25 -7.0
65 41 -7.0
65 285 -1446.0
65 286 -2236.0
65 287 -2808.0
65 288 -1753.0
65 289 -1379.0
66 9 -9.0
66 25 -6.0
66 41 -9.0
66 285 -1730.0
66 286 -2292.0
66 287 -1630.0
66 288 -1716.0
66 289 -2352.0
67 9 -8.0
67 25 -4.0
67 41 -7.0
67 285 -2830.0
67 286 -1911.0
67 287 -2281.0
67 288 -890.0
67 289 -2532.0
68 9 -1.0
68 25 -6.0
68 41 -1.0
68 285 -2558.0
68 286 -2001.0
68 287 -1996.0
68 288 -1853.0
68 289 -626.0
69 10 -2.0
69 26 -7.0
69 42 -7.0
69 302 -1446.0
69 303 -2236.0
69 304 -2808.0
69 305 -1753.0
69 306 -1379.0
70 10 -9.0
70 26 -6.0
70 42 -9.0
70 302 -1730.0
70 303 -2292.0
70 304 -1630.0
70 305 -1716.0
70 306 -2352.0
71 10 -8.0
71 26 -4.0
71 42 -7.0
71 302 -2830.0
71 303 -1911.0
71 304 -2281.0
71 305 -890.0
71 306 -2532.0
72 10 -1.0
72 26 -6.0
72 42 -1.0
72 302 -2558.0
72 303 -2001.0
72 304 -1996.0
72 305 -1853.0
72 306 -626.0
73 11 -2.0
73 27 -7.0
73 43 -7.0
73 319 -1446.0
73 320 -2236.0
73 321 -2808.0
73 322 -1753.0
73 323 -1379.0
74 11 -9.0
74 27 -6.0
74 43 -9.0
74 319 -1730.0
74 320 -2292.0
74 321 -1630.0
74 322 -1716.0
74 323 -2352.0
75 11 -8.0
75 27 -4.0
75 43 -7.0
75 319 -2830.0
75 320 -1911.0
75 321 -2281.0
75 322 -890.0
75 323 -2532.0
76 11 -1.0
76 27 -6.0
76 43 -1.0
76 319 -2558.0
76 320 -2001.0
76 321 -1996.0
76 322 -1853.0
76 323 -626.0
77 12 -2.0
77 28 -7.0
77 44 -7.0
77 335 -1446.0
77 336 -2236.0
77 337 -2808.0
77 338 -1753.0
77 339 -1379.0
78 12 -9.0
78 28 -6.0
78 44 -9.0
78 335 -1730.0
78 336 -2292.0
78 337 -1630.0
78 338 -1716.0
78 339 -2352.0
79 12 -8.0
79 28 -4.0
79 44 -7.0
79 335 -2830.0
79 336 -1911.0
79 337 -2281.0
79 338 -890.0
79 339 -2532.0
80 12 -1.0
80 28 -6.0
80 44 -1.0
80 335 -2558.0
80 336 -2001.0
80 337 -1996.0
80 338 -1853.0
80 339 -626.0
81 13 -2.0
81 29 -7.0
81 45 -7.0
81 351 -1446.0
81 352 -2236.0
81 353 -2808.0
81 354 -1753.0
81 355 -1379.0
82 13 -9.0
82 29 -6.0
82 45 -9.0
82 351 -1730.0
82 352 -2292.0
82 353 -1630.0
82 354 -1716.0
82 355 -2352.0
83 13 -8.0
83 29 -4.0
83 45 -7.0
83 351 -2830.0
83 352 -1911.0
83 353 -2281.0
83 354 -890.0
83 355 -2532.0
84 13 -1.0
84 29 -6.0
84 45 -1.0
84 351 -2558.0
84 352 -2001.0
84 353 -1996.0
84 354 -1853.0
84 355 -626.0
85 14 -2.0
85 30 -7.0
85 46 -7.0
85 367 -1446.0
85 368 -2236.0
85 369 -2808.0
85 370 -1753.0
85 371 -1379.0
86 14 -9.0
86 30 -6.0
86 46 -9.0
86 367 -1730.0
86 368 -2292.0
86 369 -1630.0
86 370 -1716.0
86 371 -2352.0
87 14 -8.0
87 30 -4.0
87 46 -7.0
87 367 -2830.0
87 368 -1911.0
87 369 -2281.0
87 370 -890.0
87 371 -2532.0
88 14 -1.0
88 30 -6.0
88 46 -1.0
88 367 -2558.0
88 368 -2001.0
88 369 -1996.0
88 370 -1853.0
88 371 -626.0
89 15 -2.0
89 31 -7.0
89 47 -7.0
89 383 -1446.0
89 384 -2236.0
89 385 -2808.0
89 386 -1753.0
89 387 -1379.0
90 15 -9.0
90 31 -6.0
90 47 -9.0
90 383 -1730.0
90 384 -2292.0
90 385 -1630.0
90 386 -1716.0
90 387 -2352.0
91 15 -8.0
91 31 -4.0
91 47 -7.0
91 383 -2830.0
91 384 -1911.0
91 385 -2281.0
91 386 -890.0
91 387 -2532.0
92 15 -1.0
92 31 -6.0
92 47 -1.0
92 383 -2558.0
92 384 -2001.0
92 385 -1996.0
92 386 -1853.0
92 387 -626.0
93 16 -2.0
93 32 -7.0
93 48 -7.0
93 399 -1446.0
93 400 -2236.0
93 401 -2808.0
93 402 -1753.0
93 403 -1379.0
94 16 -9.0
94 32 -6.0
94 48 -9.0
94 399 -1730.0
94 400 -2292.0
94 401 -1630.0
94 402 -1716.0
94 403 -2352.0
95 16 -8.0
95 32 -4.0
95 48 -7.0
95 399 -2830.0
95 400 -1911.0
95 401 -2281.0
95 402 -890.0
95 403 -2532.0
96 16 -1.0
96 32 -6.0
96 48 -1.0
96 399 -2558.0
96 400 -2001.0
96 401 -1996.0
96 402 -1853.0
96 403 -626.0
1.79769313486232E+308 # value for infinity
0.0 # default left-hand-side value
74 # number of non-default left-hand-sides
12 -195.0
13 -60.0
14 -23.0
15 -100.0
16 -45.0
28 -200.0
29 -40.0
30 -45.0
31 -120.0
32 -75.0
77 -126165.0
78 -108615.0
79 -326625.0
80 -454350.0
81 -113880.0
82 -31620.0
83 -22860.0
84 -75420.0
85 -39514.0
86 -19734.0
87 -7429.0
88 -4393.0
89 -166100.0
90 -136600.0
91 -41300.0
92 -154600.0
93 -55935.0
94 -28755.0
95 -93510.0
96 -11205.0
97 -3752.0
98 -146060.0
99 -151420.0
100 -93800.0
101 -10434.0
102 -29748.0
103 -42254.0
104 -20202.0
105 -48022.0
106 -13806.0
107 -14612.0
108 -39182.0
109 -123816.0
110 -23056.0
111 -209352.0
112 -195536.0
113 -107500.0
114 -24600.0
115 -79900.0
116 -186000.0
117 -5280.0
118 -31240.0
119 -67155.0
120 -76175.0
121 -57900.0
122 -9850.0
123 -35700.0
124 -134550.0
125 -2626.0
126 -33748.0
127 -23088.0
128 -67496.0
129 -223146.0
130 -19110.0
131 -97412.0
132 -22932.0
133 -48070.0
134 -114425.0
135 -72220.0
136 -200790.0
137 -81090.0
138 -133365.0
139 -25075.0
140 -4335.0
0.0 # default right-hand-side value
74 # number of non-default right-hand-sides
12 -195.0
13 -60.0
14 -23.0
15 -100.0
16 -45.0
28 -200.0
29 -40.0
30 -45.0
31 -120.0
32 -75.0
77 1.79769313486232E+308
78 1.79769313486232E+308
79 1.79769313486232E+308
80 1.79769313486232E+308
81 1.79769313486232E+308
82 1.79769313486232E+308
83 1.79769313486232E+308
84 1.79769313486232E+308
85 1.79769313486232E+308
86 1.79769313486232E+308
87 1.79769313486232E+308
88 1.79769313486232E+308
89 1.79769313486232E+308
90 1.79769313486232E+308
91 1.79769313486232E+308
92 1.79769313486232E+308
93 1.79769313486232E+308
94 1.79769313486232E+308
95 1.79769313486232E+308
96 1.79769313486232E+308
97 -3752.0
98 -146060.0
99 -151420.0
100 -93800.0
101 -10434.0
102 -29748.0
103 -42254.0
104 -20202.0
105 -48022.0
106 -13806.0
107 -14612.0
108 -39182.0
109 -123816.0
110 -23056.0
111 -209352.0
112 -195536.0
113 -107500.0
114 -24600.0
115 -79900.0
116 -186000.0
117 -5280.0
118 -31240.0
119 -67155.0
120 -76175.0
121 -57900.0
122 -9850.0
123 -35700.0
124 -134550.0
125 -2626.0
126 -33748.0
127 -23088.0
128 -67496.0
129 -223146.0
130 -19110.0
131 -97412.0
132 -22932.0
133 -48070.0
134 -114425.0
135 -72220.0
136 -200790.0
137 -81090.0
138 -133365.0
139 -25075.0
140 -4335.0
0.0 # default variable lower bound value
0 # number of non-default variable lower bounds
100000.0 # default variable upper bound value
99 # number of non-default variable upper bounds
49 2250.0
50 575.0
51 203.0
52 1393.0
53 298.0
54 2353.0
55 364.0
56 2396.0
57 883.0
58 1292.0
59 2398.0
60 862.0
61 1257.0
62 2354.0
63 327.0
64 341.0
65 1680.0
66 2476.0
67 2105.0
68 1092.0
69 1759.0
70 301.0
71 139.0
72 1354.0
73 58.0
74 2025.0
75 511.0
76 124.0
77 2084.0
78 538.0
79 537.0
80 225.0
81 427.0
82 2087.0
83 1759.0
84 482.0
85 2086.0
86 1863.0
87 2195.0
88 396.0
89 2012.0
90 994.0
91 1923.0
92 2076.0
93 2278.0
94 1665.0
95 1333.0
96 2093.0
97 439.0
98 2755.0
99 935.0
100 2669.0
101 2730.0
102 1823.0
103 2960.0
104 2369.0
105 2664.0
106 2616.0
107 2706.0
108 2563.0
109 2755.0
110 2722.0
111 2904.0
112 2952.0
113 1855.0
114 869.0
115 1360.0
116 2739.0
117 1216.0
118 2222.0
119 1225.0
120 2815.0
121 2185.0
122 1836.0
123 1425.0
124 2821.0
125 2704.0
126 2282.0
127 2753.0
128 716.0
129 2504.0
130 2858.0
131 2823.0
132 2142.0
133 2966.0
134 2563.0
135 2218.0
136 2127.0
137 134.0
154 74.0
171 26.0
188 88.0
205 100.0
222 55.0
239 50.0
256 26.0
273 98.0
290 115.0
307 85.0
0.0 # default variable primal value in starting point
0 # number of non-default variable primal values in starting point
0.0 # default constraint dual value in starting point
0 # number of non-default constraint dual values in starting point
0.0 # default variable bound dual value in starting point
0 # number of non-default variable bound dual values in starting point
0 # number of non-default variable names
0 # number of non-default constraint names
